n= 4
m= 50
1000
2000
2500
3000
137	18	6
290	24	6
256	15	5
168	8	8
454	7	7
91	36	9
143	32	8
29	18	6
386	14	7
467	20	5
314	7	7
366	21	7
169	36	9
389	18	9
217	24	8
340	28	7
142	10	5
168	36	9
159	7	7
415	27	9
381	9	9
405	15	5
247	9	9
209	27	9
263	8	8
344	5	5
179	24	8
141	7	7
261	21	7
261	18	6
110	9	9
533	18	6
66	10	5
505	14	7
131	32	8
530	24	6
590	20	5
110	5	5
451	28	7
599	7	7
251	6	6
406	14	7
184	36	9
153	14	7
103	36	9
514	27	9
199	9	9
210	10	5
409	16	8
575	24	6
